(set-info :origin "NTS benchmark converted to SMT-LIB2 using Eldarica (http://lara.epfl.ch/w/eldarica)")
(set-logic HORN)
(declare-fun main_q2 (Int Int Int Int) Bool)
(declare-fun main_qf () Bool)
(declare-fun main_q0 (Int Int Int Int) Bool)
(declare-fun main_q1 (Int Int Int Int) Bool)
(declare-fun remainder_q2 (Int Int Int Int Int Int) Bool)
(declare-fun remainder_q3 (Int Int Int Int Int Int) Bool)
(declare-fun remainder_q0 (Int Int Int Int Int Int) Bool)
(declare-fun remainder_q1 (Int Int Int Int Int Int) Bool)
(assert(forall((?A Int)(?B Int)(?C Int)(?D Int))(=>(and (main_q2 ?A ?B ?C ?D)(not (= ?C 1))) main_qf)))
(assert(not (exists((?A Int)(?B Int)(?C Int)(?D Int))(and (main_q2 ?A ?B ?C ?D)(= ?C 1)))))
(assert(forall((?A Int)(?B Int)(?C Int)(?D Int)(?E Int)(?F Int))(=>(and (main_q0 ?A ?B ?E ?F)(and (>= ?D 0) (= (mod ?D 2) 0))) (main_q1 ?A ?B ?C ?D))))
(assert(forall((?A Int)(?B Int)(?C Int)(?D Int))(=>(and (= ?A ?C) (= ?B ?D)) (main_q0 ?A ?B ?C ?D))))
(assert(forall((?A Int)(?B Int)(?C Int)(?D Int)(?E Int)(?F Int)(?G Int)(?H Int)(?I Int))(=>(and (remainder_q2 ?A ?B ?C ?G ?H ?I)(and (= ?D ?H) (and (= ?H ?E) (= ?I ?F)))) (remainder_q3 ?A ?B ?C ?D ?E ?F))))
(assert(forall((?A Int)(?B Int)(?C Int)(?D Int)(?E Int)(?F Int)(?G Int)(?H Int)(?I Int))(=>(and (remainder_q0 ?A ?B ?C ?G ?H ?I)(and (< ?H ?I) (and (and (= ?G ?D) (= ?H ?E)) (= ?I ?F)))) (remainder_q2 ?A ?B ?C ?D ?E ?F))))
(assert(forall((?A Int)(?B Int)(?C Int)(?D Int)(?E Int)(?F Int)(?G Int)(?H Int)(?I Int))(=>(and (remainder_q0 ?A ?B ?C ?G ?H ?I)(and (>= ?H ?I) (and (and (= ?G ?D) (= ?H ?E)) (= ?I ?F)))) (remainder_q1 ?A ?B ?C ?D ?E ?F))))
(assert(forall((?A Int)(?B Int)(?C Int)(?D Int)(?E Int)(?F Int)(?G Int)(?H Int)(?I Int)(?J Int)(?K Int)(?L Int)(?M Int)(?N Int)(?O Int))(=>(and (and (and (and (remainder_q1 ?A ?B ?C ?G ?H ?I)(and (= ?J (- ?H ?I)) (= ?K ?I)))(remainder_q3 ?L ?J ?K ?M ?N ?O))(= ?M ?D))(and (= ?H ?E) (= ?I ?F))) (remainder_q3 ?A ?B ?C ?D ?E ?F))))
(assert(forall((?A Int)(?B Int)(?C Int)(?D Int)(?E Int)(?F Int)(?G Int)(?H Int)(?I Int)(?J Int)(?K Int)(?L Int))(=>(and (and (remainder_q1 ?G ?H ?I ?J ?K ?L)(and (= ?B (- ?K ?L)) (= ?C ?L)))(and (and (= ?A ?D) (= ?B ?E)) (= ?C ?F))) (remainder_q0 ?A ?B ?C ?D ?E ?F))))
(assert(forall((?A Int)(?B Int)(?C Int)(?D Int)(?E Int)(?F Int)(?G Int)(?H Int)(?I Int)(?J Int)(?K Int)(?L Int))(=>(and (and (and (and (main_q1 ?A ?B ?E ?F)(and (= ?G ?F) (= ?H 2)))(remainder_q3 ?I ?G ?H ?J ?K ?L))(= ?J ?C))(= ?F ?D)) (main_q2 ?A ?B ?C ?D))))
(assert(forall((?A Int)(?B Int)(?C Int)(?D Int)(?E Int)(?F Int)(?G Int)(?H Int)(?I Int)(?J Int))(=>(and (and (main_q1 ?G ?H ?I ?J)(and (= ?B ?J) (= ?C 2)))(and (and (= ?A ?D) (= ?B ?E)) (= ?C ?F))) (remainder_q0 ?A ?B ?C ?D ?E ?F))))
(check-sat)
